Copyright (C) 2013-2015, Filipe Brandao
Build (method = -2)
  #dp: 135653
  Step-3' Graph: 3366 vertices and 71576 arcs (2.28s)
  Step-4' Graph: 2250 vertices and 69344 arcs (2.31s)
  #V4/#V3 = 0.67
  #A4/#A3 = 0.97
Ready! (2.32s)
Optimize a model with 2500 rows, 69345 columns and 203545 nonzeros
Coefficient statistics:
  Matrix range    [1e+00, 1e+00]
  Objective range [1e+00, 1e+00]
  Bounds range    [1e+00, 2e+01]
  RHS range       [1e+00, 2e+01]
Presolve removed 106 rows and 239 columns
Presolve time: 0.51s
Presolved: 2394 rows, 69106 columns, 202920 nonzeros
Variable types: 0 continuous, 69106 integer (7345 binary)
Optimize a model with 2394 rows, 69106 columns and 202920 nonzeros
Coefficient statistics:
  Matrix range    [1e+00, 2e+00]
  Objective range [1e+00, 1e+00]
  Bounds range    [1e+00, 6e+04]
  RHS range       [1e+00, 8e+02]
Presolved: 2394 rows, 69106 columns, 202920 nonzeros

Root barrier log...

Ordering time: 0.02s

Barrier statistics:
 AA' NZ     : 1.017e+05
 Factor NZ  : 2.804e+05 (roughly 30 MBytes of memory)
 Factor Ops : 6.863e+07 (less than 1 second per iteration)
 Threads    : 1

                  Objective                Residual
Iter       Primal          Dual         Primal    Dual     Compl     Time
   0   1.25489157e+05 -2.65368313e+06  6.22e+06 3.78e-02  4.96e+02     1s
   1   4.29301671e+04 -9.49443843e+05  1.18e+06 7.77e-16  9.65e+01     1s
   2   9.74875186e+03 -5.42636101e+05  1.69e+05 5.77e-15  1.63e+01     1s
   3   4.47819586e+03 -2.91700486e+05  3.24e+04 2.97e-03  4.19e+00     1s
   4   3.41547586e+03 -1.38062481e+05  8.89e+03 1.09e-03  1.51e+00     2s
   5   2.96156898e+03 -9.11917489e+04  2.75e+03 6.65e-04  8.18e-01     2s
   6   2.82803847e+03 -6.06804930e+04  1.47e+03 3.96e-04  5.26e-01     2s
   7   2.67054774e+03 -2.88266159e+04  4.19e+02 8.79e-05  2.44e-01     2s
   8   2.51676201e+03 -1.81465709e+04  1.51e+02 2.55e-15  1.54e-01     2s
   9   2.30890869e+03 -1.25558754e+04  8.48e+01 1.78e-15  1.10e-01     2s
  10   2.04489083e+03 -1.10296161e+04  5.90e+01 1.55e-15  9.63e-02     2s
  11   1.74356278e+03 -5.87871284e+03  3.86e+01 8.88e-16  5.62e-02     2s
  12   1.47177051e+03 -3.19870134e+03  2.27e+01 5.69e-16  3.44e-02     2s
  13   1.27207893e+03 -9.96528289e+02  1.30e+01 4.91e-16  1.67e-02     2s
  14   1.22444708e+03 -4.86601327e+02  1.09e+01 7.63e-16  1.26e-02     2s
  15   1.19594510e+03 -3.26438947e+02  9.08e+00 6.15e-16  1.12e-02     2s
  16   1.17412422e+03 -7.09039508e+01  7.11e+00 5.54e-16  9.13e-03     2s
  17   1.12807179e+03  4.67462705e+01  4.23e+00 4.69e-16  7.89e-03     2s
  18   1.12127647e+03  5.70562106e+02  3.45e+00 4.19e-16  4.02e-03     2s
  19   1.10863643e+03  8.84859664e+02  2.28e+00 3.33e-16  1.63e-03     2s
  20   1.09934119e+03  9.03179341e+02  1.64e+00 4.42e-16  1.43e-03     2s
  21   1.09508975e+03  9.57880859e+02  1.29e+00 4.44e-16  9.99e-04     2s
  22   1.09016369e+03  1.00399616e+03  9.50e-01 3.03e-16  6.27e-04     2s
  23   1.08380906e+03  1.01755937e+03  5.20e-01 3.33e-16  4.81e-04     2s
  24   1.08132478e+03  1.03842216e+03  3.70e-01 4.44e-16  3.11e-04     2s
  25   1.07952568e+03  1.04376909e+03  2.66e-01 3.16e-16  2.59e-04     2s
  26   1.07842676e+03  1.04925005e+03  2.08e-01 3.33e-16  2.11e-04     2s
  27   1.07750799e+03  1.05218271e+03  1.63e-01 3.73e-16  1.83e-04     2s
  28   1.07703213e+03  1.05400036e+03  1.42e-01 4.18e-16  1.67e-04     3s
  29   1.07576955e+03  1.05721158e+03  8.52e-02 4.44e-16  1.34e-04     3s
  30   1.07534236e+03  1.06058007e+03  6.92e-02 4.44e-16  1.07e-04     3s
  31   1.07502981e+03  1.06315984e+03  5.80e-02 3.33e-16  8.59e-05     3s
  32   1.07481270e+03  1.06428001e+03  5.15e-02 3.33e-16  7.62e-05     3s
  33   1.07460488e+03  1.06476396e+03  4.55e-02 4.44e-16  7.12e-05     3s
  34   1.07407647e+03  1.06721013e+03  3.30e-02 4.44e-16  4.97e-05     3s
  35   1.07382201e+03  1.06862386e+03  2.67e-02 3.33e-16  3.76e-05     3s
  36   1.07364272e+03  1.06884096e+03  2.24e-02 4.44e-16  3.47e-05     3s
  37   1.07354482e+03  1.06935070e+03  1.99e-02 4.44e-16  3.04e-05     3s
  38   1.07349525e+03  1.06977402e+03  1.86e-02 4.16e-16  2.69e-05     3s
  39   1.07320675e+03  1.07026284e+03  1.26e-02 4.32e-16  2.13e-05     3s
  40   1.07315150e+03  1.07046356e+03  1.15e-02 3.45e-16  1.94e-05     3s
  41   1.07294968e+03  1.07102232e+03  8.13e-03 3.38e-16  1.39e-05     3s
  42   1.07276111e+03  1.07145691e+03  5.20e-03 3.33e-16  9.44e-06     3s
  43   1.07261604e+03  1.07171855e+03  2.96e-03 3.33e-16  6.49e-06     3s
  44   1.07256163e+03  1.07192318e+03  2.17e-03 4.44e-16  4.62e-06     3s
  45   1.07253583e+03  1.07201987e+03  1.83e-03 3.59e-16  3.73e-06     3s
  46   1.07249700e+03  1.07222714e+03  1.31e-03 4.44e-16  1.95e-06     3s
  47   1.07246614e+03  1.07226205e+03  8.80e-04 4.44e-16  1.48e-06     3s
  48   1.07245476e+03  1.07228596e+03  7.32e-04 3.33e-16  1.22e-06     3s
  49   1.07244812e+03  1.07230974e+03  6.40e-04 3.63e-16  1.00e-06     3s
  50   1.07244764e+03  1.07231939e+03  6.31e-04 3.63e-16  9.28e-07     3s
  51   1.07243594e+03  1.07233815e+03  4.62e-04 3.38e-16  7.08e-07     3s
  52   1.07243180e+03  1.07235087e+03  4.11e-04 3.33e-16  5.86e-07     3s
  53   1.07242165e+03  1.07235273e+03  2.92e-04 3.76e-16  4.99e-07     3s
  54   1.07241046e+03  1.07238055e+03  1.56e-04 4.44e-16  2.16e-07     4s
  55   1.07240583e+03  1.07238912e+03  1.03e-04 3.29e-16  1.21e-07     4s
  56   1.07239767e+03  1.07239595e+03  8.62e-06 3.33e-16  1.24e-08     4s
  57   1.07239676e+03  1.07239674e+03  2.24e-08 4.44e-16  1.62e-10     4s
  58   1.07239675e+03  1.07239675e+03  1.99e-09 3.95e-16  2.41e-14     4s

Barrier solved model in 58 iterations and 3.72 seconds
Optimal objective 1.07239675e+03


Root relaxation: objective 1.072397e+03, 2106 iterations, 2.60 seconds

    Nodes    |    Current Node    |     Objective Bounds      |     Work
 Expl Unexpl |  Obj  Depth IntInf | Incumbent    BestBd   Gap | It/Node Time

     0     0 1072.39675    0  177          - 1072.39675      -     -    3s
H    0     0                    1075.0000000 1072.39675  0.24%     -    4s
H    0     0                    1073.0000000 1072.39675  0.06%     -    5s

Explored 0 nodes (2402 simplex iterations) in 5.92 seconds
Thread count was 1 (of 4 available processors)

Optimal solution found (tolerance 0.00e+00)
Best objective 1.073000000000e+03, best bound 1.073000000000e+03, gap 0.0%
Preprocessing time: 2.48 seconds
Gurobi run time: 5.92 seconds
Total run time: 8.40 seconds
Objective: 1073
Solution:
3 x [i=1, i=161]
9 x [i=1, i=162]
6 x [i=2, i=160]
8 x [i=2, i=161]
1 x [i=3, i=159]
3 x [i=3, i=234, i=247]
5 x [i=4, i=237, i=246]
13 x [i=5, i=233, i=247]
2 x [i=5, i=237, i=246]
5 x [i=6, i=229, i=250]
1 x [i=6, i=232, i=248]
4 x [i=6, i=236, i=246]
3 x [i=6, i=240, i=245]
6 x [i=7, i=228, i=250]
2 x [i=8, i=231, i=248]
2 x [i=8, i=244, i=244]
20 x [i=9, i=158]
2 x [i=10, i=154]
8 x [i=10, i=155]
7 x [i=10, i=156]
7 x [i=11, i=149]
1 x [i=12, i=147]
11 x [i=12, i=148]
7 x [i=12, i=149]
3 x [i=13, i=146]
15 x [i=13, i=147]
18 x [i=14, i=144]
12 x [i=15, i=143]
15 x [i=16, i=145]
2 x [i=17, i=142]
16 x [i=18, i=142]
1 x [i=19, i=142]
12 x [i=20, i=139]
3 x [i=20, i=141]
1 x [i=20, i=205, i=248]
12 x [i=21, i=138]
11 x [i=22, i=136]
2 x [i=22, i=137]
5 x [i=22, i=138]
9 x [i=23, i=135]
1 x [i=23, i=137]
1 x [i=24, i=200, i=248]
1 x [i=25, i=220, i=243]
11 x [i=25, i=228, i=236]
1 x [i=25, i=229, i=236]
1 x [i=25, i=231, i=235]
1 x [i=25, i=233]
3 x [i=25, i=233, i=233]
8 x [i=26, i=211, i=246]
4 x [i=26, i=222, i=242]
1 x [i=27, i=133]
5 x [i=28, i=130]
1 x [i=29, i=128]
1 x [i=29, i=130]
5 x [i=30, i=128]
13 x [i=30, i=129]
8 x [i=31, i=127]
6 x [i=32, i=213, i=244]
2 x [i=32, i=217, i=240]
1 x [i=32, i=219, i=240]
1 x [i=32, i=226, i=236]
9 x [i=33, i=127]
1 x [i=33, i=130]
1 x [i=33, i=202, i=245]
1 x [i=33, i=219, i=239]
3 x [i=34, i=213, i=243]
9 x [i=35, i=192, i=249]
3 x [i=35, i=211, i=243]
5 x [i=35, i=212, i=241]
4 x [i=36, i=124]
10 x [i=37, i=122]
3 x [i=37, i=123]
12 x [i=38, i=118]
4 x [i=38, i=119]
6 x [i=39, i=119]
1 x [i=39, i=120]
7 x [i=40, i=117]
2 x [i=41, i=117]
2 x [i=41, i=186, i=248]
11 x [i=41, i=198, i=243]
1 x [i=41, i=208, i=237]
2 x [i=41, i=221, i=229]
3 x [i=42, i=184, i=248]
2 x [i=42, i=197, i=244]
5 x [i=43, i=210, i=235]
1 x [i=44, i=182, i=248]
1 x [i=45, i=196, i=243]
1 x [i=46, i=115]
13 x [i=46, i=116]
1 x [i=46, i=197, i=242]
5 x [i=46, i=205, i=235]
10 x [i=47, i=115]
1 x [i=47, i=181, i=248]
1 x [i=47, i=197, i=242]
2 x [i=47, i=205, i=235]
3 x [i=47, i=217, i=230]
7 x [i=48, i=109]
4 x [i=48, i=110]
13 x [i=49, i=108]
1 x [i=50, i=107]
8 x [i=51, i=104]
5 x [i=51, i=105]
2 x [i=51, i=196, i=234]
1 x [i=51, i=216, i=218]
5 x [i=52, i=103]
2 x [i=52, i=207, i=225]
3 x [i=53, i=103]
1 x [i=53, i=205, i=225]
7 x [i=53, i=206, i=225]
11 x [i=54, i=187, i=242]
2 x [i=54, i=210, i=224]
3 x [i=54, i=214, i=216]
1 x [i=55, i=190, i=240]
3 x [i=55, i=192, i=238]
2 x [i=55, i=200, i=226]
3 x [i=55, i=201, i=226]
1 x [i=55, i=210, i=223]
10 x [i=55, i=214, i=216]
13 x [i=56, i=101]
1 x [i=57, i=101]
10 x [i=58, i=97]
6 x [i=59, i=96]
6 x [i=60, i=95]
7 x [i=60, i=96]
7 x [i=61, i=203, i=218]
2 x [i=62, i=203, i=218]
1 x [i=62, i=204, i=217]
1 x [i=63, i=171, i=245]
2 x [i=63, i=176, i=241]
7 x [i=63, i=203, i=217]
4 x [i=64, i=91]
2 x [i=65, i=90]
15 x [i=65, i=91]
1 x [i=66, i=90]
6 x [i=66, i=208, i=212]
1 x [i=67, i=180, i=239]
6 x [i=67, i=182, i=235]
1 x [i=67, i=196, i=221]
1 x [i=68, i=89]
4 x [i=69, i=86]
7 x [i=70, i=86]
1 x [i=70, i=87]
6 x [i=71, i=85]
8 x [i=71, i=87]
5 x [i=72, i=83]
11 x [i=72, i=84]
12 x [i=73, i=81]
6 x [i=73, i=83]
3 x [i=74, i=81]
1 x [i=74, i=173, i=239]
1 x [i=74, i=186, i=229]
2 x [i=75, i=81]
2 x [i=75, i=183, i=231]
3 x [i=75, i=186, i=229]
4 x [i=75, i=187, i=227]
8 x [i=75, i=189, i=225]
12 x [i=76, i=80]
3 x [i=76, i=81]
3 x [i=76, i=82]
3 x [i=77, i=79]
1 x [i=78, i=79]
9 x [i=78, i=78]
8 x [i=79, i=79]
2 x [i=86, i=175, i=229]
3 x [i=87, i=190, i=215]
2 x [i=88, i=165, i=236]
2 x [i=88, i=187, i=218]
1 x [i=89, i=165, i=236]
1 x [i=89, i=189, i=214]
1 x [i=92, i=192, i=208]
1 x [i=93, i=196, i=197]
4 x [i=94, i=141, i=248]
3 x [i=94, i=192, i=205]
1 x [i=95, i=187, i=210]
2 x [i=95, i=188, i=205]
7 x [i=95, i=188, i=206]
7 x [i=98, i=166, i=231]
1 x [i=98, i=169, i=227]
1 x [i=98, i=172, i=225]
2 x [i=98, i=187, i=208]
8 x [i=98, i=191, i=199]
1 x [i=98, i=192, i=199]
14 x [i=99, i=173, i=223]
1 x [i=99, i=174, i=219]
2 x [i=99, i=182, i=213]
1 x [i=100, i=191, i=198]
2 x [i=101, i=166, i=229]
1 x [i=102, i=166, i=229]
3 x [i=102, i=182, i=211]
1 x [i=106, i=152, i=234]
4 x [i=106, i=175, i=210]
1 x [i=106, i=209]
4 x [i=107, i=163, i=221]
2 x [i=107, i=167, i=218]
2 x [i=107, i=173, i=212]
2 x [i=107, i=175, i=204]
6 x [i=107, i=185, i=195]
1 x [i=107, i=192, i=193]
1 x [i=108, i=165, i=217]
2 x [i=109, i=172, i=205]
1 x [i=109, i=173, i=203]
1 x [i=109, i=178, i=196]
1 x [i=109, i=179, i=194]
2 x [i=110, i=176, i=197]
6 x [i=111, i=176, i=197]
3 x [i=112, i=149, i=229]
2 x [i=112, i=172, i=205]
6 x [i=112, i=176, i=197]
1 x [i=113, i=166, i=214]
5 x [i=113, i=170, i=210]
4 x [i=114, i=190, i=190]
1 x [i=119, i=153, i=218]
1 x [i=119, i=180, i=190]
1 x [i=120, i=141, i=234]
7 x [i=120, i=170, i=196]
5 x [i=120, i=178, i=190]
1 x [i=121, i=141, i=234]
3 x [i=121, i=150, i=218]
4 x [i=123, i=168, i=195]
5 x [i=123, i=174, i=191]
2 x [i=124, i=168, i=195]
1 x [i=124, i=184, i=184]
3 x [i=125, i=133, i=239]
2 x [i=125, i=145, i=221]
5 x [i=125, i=169, i=195]
7 x [i=126, i=134, i=237]
2 x [i=126, i=166, i=198]
2 x [i=130, i=149, i=206]
8 x [i=131, i=174, i=183]
7 x [i=132, i=153, i=204]
2 x [i=132, i=168, i=192]
3 x [i=132, i=175, i=182]
4 x [i=133, i=174, i=182]
3 x [i=134, i=150, i=204]
4 x [i=134, i=172, i=188]
4 x [i=134, i=177, i=177]
1 x [i=138, i=148, i=197]
1 x [i=139, i=170, i=179]
7 x [i=140, i=163, i=188]
1 x [i=140, i=172, i=176]
4 x [i=141, i=166, i=186]
4 x [i=141, i=171, i=177]
2 x [i=145, i=167, i=173]
1 x [i=147, i=150, i=186]
1 x [i=150, i=162, i=172]
2 x [i=150, i=164, i=171]
1 x [i=150, i=150, i=181]
1 x [i=151, i=156, i=177]
8 x [i=152, i=152, i=179]
1 x [i=153, i=164, i=170]
2 x [i=156, i=156, i=175]
2 x [i=157, i=163, i=169]
1 x [i=176, i=178, i=227, i=235]
1 x [i=200, i=205, i=215, i=216]
